Version identifier: 20.1.0.0 | 2020-11-10 | 9bedb6d68
CPXPARAM_Threads                                 1
CPXPARAM_TimeLimit                               7200
CPXPARAM_MIP_Tolerances_MIPGap                   0
Generic callback                                 0x60
1 of 1 MIP starts provided solutions.
MIP start 'm1' defined initial solution with objective 2873.0875.
Tried aggregator 1 time.
Reduced MIP has 400801 rows, 400501 columns, and 1200500 nonzeros.
Reduced MIP has 500 binaries, 0 generals, 0 SOSs, and 0 indicators.
Presolve time = 0.40 sec. (381.28 ticks)
Probing time = 0.05 sec. (50.03 ticks)
Tried aggregator 1 time.
Reduced MIP has 400801 rows, 400501 columns, and 1200500 nonzeros.
Reduced MIP has 500 binaries, 0 generals, 0 SOSs, and 0 indicators.
Presolve time = 0.40 sec. (374.78 ticks)
Probing time = 0.05 sec. (50.03 ticks)
MIP emphasis: balance optimality and feasibility.
MIP search method: dynamic search.
Parallel mode: none, using 1 thread.
Root relaxation solution time = 0.12 sec. (154.35 ticks)

        Nodes                                         Cuts/
   Node  Left     Objective  IInf  Best Integer    Best Bound    ItCnt     Gap

*     0+    0                         2873.0875     4368.0000            52.03%
      0     0     2934.7603    26     2873.0875     4368.0000        0   52.03%
      0     2     2934.7603    26     2873.0875     2934.7600        0    2.15%
Elapsed time = 740.03 sec. (554675.98 ticks, tree = 0.01 MB, solutions = 1)
      1     3     2916.0918    24     2873.0875     2934.7600    76604    2.15%
      2     4     2913.6459    15     2873.0875     2916.0909   101966    1.50%
      3     5     2912.8018     6     2873.0875     2916.0909   105150    1.50%
      4     6     2912.7633     4     2873.0875     2916.0909   112463    1.50%
      5     7     2912.4466     4     2873.0875     2916.0909   126210    1.50%
      6     8     2897.2333     2     2873.0875     2916.0909   132197    1.50%
*     7     5      integral     0     2912.4125     2916.0909   133843    0.13%
      8     4        cutoff           2912.4125     2916.0909   133847    0.13%
      9     5     2914.9183     8     2912.4125     2916.0907   142739    0.13%
*    10+    2                         2914.2964     2916.0907             0.06%
     10     4     2914.7727     9     2914.2964     2916.0907   150144    0.06%
Elapsed time = 2708.43 sec. (1781865.74 ticks, tree = 0.15 MB, solutions = 3)
     11     3        cutoff           2914.2964     2916.0907   161597    0.06%
     12     2        cutoff           2914.2964     2916.0907   207190    0.06%
     13     3     2914.7228     4     2914.2964     2916.0907   213701    0.06%
     14     4     2914.6310     6     2914.2964     2916.0907   214396    0.06%
     15     3        cutoff           2914.2964     2916.0907   224841    0.06%
     17     3        cutoff           2914.2964     2916.0907   235681    0.06%
     18     4     2914.4694     2     2914.2964     2916.0907   235992    0.06%
     21     3     2915.8023    23     2914.2964     2915.8013   237747    0.05%
     22     4     2915.4229    22     2914.2964     2915.8011   240876    0.05%
     23     5     2915.2251    26     2914.2964     2915.8011   242378    0.05%
Elapsed time = 2933.13 sec. (1922919.87 ticks, tree = 0.44 MB, solutions = 3)
     24     4        cutoff           2914.2964     2915.8011   244496    0.05%
     25     5     2914.6928    29     2914.2964     2915.8011   249485    0.05%
     26     4        cutoff           2914.2964     2915.8011   251592    0.05%
     27     3        cutoff           2914.2964     2915.8011   252721    0.05%
     28     4     2914.4306     6     2914.2964     2915.4228   260427    0.04%
     29     5     2914.3014     6     2914.2964     2915.4228   262640    0.04%
     30     4        cutoff           2914.2964     2915.4228   278263    0.04%
     31     3        cutoff           2914.2964     2915.4228   303386    0.04%
     32     2        cutoff           2914.2964     2914.6304   306481    0.01%
     33     1        cutoff           2914.2964     2914.4305   306710    0.00%
Elapsed time = 3468.11 sec. (2270376.59 ticks, tree = 0.01 MB, solutions = 3)

User cuts applied:  12

Root node processing (before b&c):
  Real time             =  739.98 sec. (554625.46 ticks)
Sequential b&c:
  Real time             = 2729.26 sec. (1716639.20 ticks)
                          ------------
Total (root+branch&cut) = 3469.24 sec. (2271264.67 ticks)
@Parameters: 
is_S_cut                                true
is_add_all_yinF                         true
is_start_value                          true
is_usercut                              true
is_visualization                        false
uc_only_rootnode                        false

data                                    Qi
fn                                      data/Qi/instance_800_500.csv
mode                                    ZLP
solver                                  cplex

p                                       5
r                                       2

EPS                                     1.0e-06
EPS_vio                                 1.0e-04
beta                                    0.10
gap                                     0.00
nodelimit                               Inf
timelimit                               7200.00


@PrintInfos
ItCnt: 306795
Current gap: 0.00 %
Termination Status: OPTIMAL
Primal Status: FEASIBLE_POINT
Solve Time: 3469.24 sec
Objective Value: 2914.296421
Number of Nodes:     35

CutInfo: [phase] num / time (sec) 
ZLP             [phase1]     0 / 0.00 [rLC]     3 / 8.52 [rUC]     2 / 4.48 [sLC]     2 / 6.85 [sUC]     8 / 87.60 
OldSubmodular   [phase1]     0 / 0.00 [rLC]     0 / 0.00 [rUC]     0 / 0.00 [sLC]     0 / 0.00 [sUC]     0 / 0.00 
NewSubmodular   [phase1]     0 / 0.00 [rLC]     0 / 0.00 [rUC]     0 / 0.00 [sLC]     0 / 0.00 [sUC]     0 / 0.00 
PMP             [phase1]     0 / 0.00 [rLC]     4 / 5.84 [rUC]     2 / 2.45 [sLC]     4 / 5.69 [sUC]    40 / 66.23 
Separation Round: [phase1] 0  [rLC] 4  [rUC] 2  [sLC] 4  [sUC] 40
Root Best Bound 2916.090947
Root Best Integer: 2873.087481
Best Bound: 2914.296421
Best Integer: 2914.296421

